c CNF
c from Selman's wff generator
p cnf 200  1200
1.0 183 -102 0
1.0 19 163 0
1.0 92 187 0
1.0 -108 183 0
1.0 -111 -123 0
1.0 -158 -149 0
1.0 27 168 0
1.0 73 32 0
1.0 133 -123 0
1.0 -85 -76 0
1.0 63 -191 0
1.0 173 40 0
1.0 162 -13 0
1.0 162 -187 0
1.0 155 83 0
1.0 114 92 0
1.0 -14 133 0
1.0 8 159 0
1.0 149 -147 0
1.0 187 -109 0
1.0 122 49 0
1.0 36 -119 0
1.0 2 -73 0
1.0 -165 -98 0
1.0 30 158 0
1.0 -116 152 0
1.0 -98 148 0
1.0 57 -189 0
1.0 38 99 0
1.0 18 134 0
1.0 -7 -80 0
1.0 -177 95 0
1.0 53 -26 0
1.0 177 151 0
1.0 -99 -17 0
1.0 -5 190 0
1.0 -89 -195 0
1.0 -129 -178 0
1.0 -58 60 0
1.0 155 55 0
1.0 -81 84 0
1.0 -34 -6 0
1.0 22 90 0
1.0 80 -20 0
1.0 15 -182 0
1.0 160 1 0
1.0 61 185 0
1.0 40 -93 0
1.0 -176 195 0
1.0 -200 108 0
1.0 198 28 0
1.0 48 114 0
1.0 96 121 0
1.0 121 -83 0
1.0 -67 -125 0
1.0 -17 26 0
1.0 -2 -12 0
1.0 -33 107 0
1.0 -184 18 0
1.0 -79 89 0
1.0 -144 70 0
1.0 -52 31 0
1.0 137 -158 0
1.0 -150 -76 0
1.0 87 -73 0
1.0 -179 -64 0
1.0 -81 -191 0
1.0 79 141 0
1.0 11 6 0
1.0 -37 -181 0
1.0 -138 173 0
1.0 49 -97 0
1.0 169 -133 0
1.0 -196 51 0
1.0 41 -102 0
1.0 -42 77 0
1.0 -83 -181 0
1.0 161 23 0
1.0 -196 25 0
1.0 -121 25 0
1.0 157 -31 0
1.0 82 -147 0
1.0 48 64 0
1.0 -141 183 0
1.0 -163 -54 0
1.0 77 34 0
1.0 -59 -9 0
1.0 34 -92 0
1.0 -123 105 0
1.0 -51 172 0
1.0 -36 -166 0
1.0 -149 -127 0
1.0 181 141 0
1.0 -174 57 0
1.0 66 43 0
1.0 135 80 0
1.0 184 32 0
1.0 -3 187 0
1.0 153 -119 0
1.0 46 13 0
1.0 153 -46 0
1.0 -103 -12 0
1.0 54 -170 0
1.0 50 155 0
1.0 186 -107 0
1.0 93 200 0
1.0 -119 -39 0
1.0 -51 156 0
1.0 -1 -74 0
1.0 85 -90 0
1.0 -60 -137 0
1.0 -91 173 0
1.0 80 -10 0
1.0 10 -89 0
1.0 127 -162 0
1.0 -117 -82 0
1.0 155 111 0
1.0 -200 92 0
1.0 -28 -105 0
1.0 -78 -109 0
1.0 -119 -57 0
1.0 145 146 0
1.0 107 146 0
1.0 -28 -30 0
1.0 141 -162 0
1.0 -53 199 0
1.0 -104 -167 0
1.0 -76 -191 0
1.0 -47 -67 0
1.0 12 -176 0
1.0 -121 -113 0
1.0 -142 82 0
1.0 44 151 0
1.0 -150 22 0
1.0 189 173 0
1.0 164 173 0
1.0 40 178 0
1.0 -153 65 0
1.0 177 -111 0
1.0 193 151 0
1.0 -102 24 0
1.0 -46 108 0
1.0 81 138 0
1.0 110 -155 0
1.0 -133 56 0
1.0 -120 170 0
1.0 80 181 0
1.0 -132 16 0
1.0 40 -83 0
1.0 186 -118 0
1.0 15 -71 0
1.0 -125 -182 0
1.0 182 -188 0
1.0 147 -197 0
1.0 12 103 0
1.0 11 91 0
1.0 -174 -151 0
1.0 68 25 0
1.0 96 116 0
1.0 -97 155 0
1.0 142 99 0
1.0 96 -60 0
1.0 -163 -73 0
1.0 164 -200 0
1.0 150 20 0
1.0 -45 -180 0
1.0 -96 -153 0
1.0 107 159 0
1.0 -58 -100 0
1.0 160 -152 0
1.0 25 -193 0
1.0 -192 -117 0
1.0 -137 -23 0
1.0 -3 59 0
1.0 11 -80 0
1.0 -39 161 0
1.0 60 104 0
1.0 -56 108 0
1.0 101 34 0
1.0 151 194 0
1.0 17 192 0
1.0 -50 190 0
1.0 -69 -6 0
1.0 166 145 0
1.0 49 -53 0
1.0 -161 185 0
1.0 -19 -52 0
1.0 45 186 0
1.0 177 126 0
1.0 115 -196 0
1.0 2 -65 0
1.0 -10 95 0
1.0 -147 -37 0
1.0 -22 146 0
1.0 197 120 0
1.0 -105 65 0
1.0 -191 -182 0
1.0 178 -194 0
1.0 -58 179 0
1.0 -74 138 0
1.0 -175 -87 0
1.0 32 95 0
1.0 14 -44 0
1.0 -109 173 0
1.0 155 -107 0
1.0 -100 -91 0
1.0 70 -56 0
1.0 -194 -150 0
1.0 -37 90 0
1.0 184 -200 0
1.0 -43 -167 0
1.0 139 116 0
1.0 22 -52 0
1.0 143 136 0
1.0 -191 -103 0
1.0 -52 118 0
1.0 -7 -117 0
1.0 -116 -54 0
1.0 -20 -104 0
1.0 19 157 0
1.0 -8 -77 0
1.0 -12 40 0
1.0 -143 -116 0
1.0 33 139 0
1.0 56 -39 0
1.0 -92 -17 0
1.0 120 -36 0
1.0 -192 -122 0
1.0 -199 141 0
1.0 180 -110 0
1.0 -26 200 0
1.0 139 -198 0
1.0 -37 -127 0
1.0 144 92 0
1.0 127 -109 0
1.0 -31 181 0
1.0 121 67 0
1.0 177 53 0
1.0 52 -138 0
1.0 -136 -158 0
1.0 85 146 0
1.0 37 -139 0
1.0 48 93 0
1.0 -73 -200 0
1.0 67 147 0
1.0 199 115 0
1.0 53 -105 0
1.0 -62 -21 0
1.0 -167 60 0
1.0 -199 66 0
1.0 -158 49 0
1.0 49 -31 0
1.0 -177 -117 0
1.0 31 2 0
1.0 106 -63 0
1.0 -84 31 0
1.0 91 88 0
1.0 -153 -21 0
1.0 -70 -58 0
1.0 88 165 0
1.0 81 -191 0
1.0 -193 63 0
1.0 125 66 0
1.0 97 -180 0
1.0 67 112 0
1.0 -132 10 0
1.0 -68 -71 0
1.0 35 -153 0
1.0 144 -59 0
1.0 121 23 0
1.0 89 -102 0
1.0 -81 -112 0
1.0 -24 -48 0
1.0 -57 -96 0
1.0 166 76 0
1.0 -28 -99 0
1.0 -157 145 0
1.0 -167 142 0
1.0 44 -176 0
1.0 88 -12 0
1.0 59 -38 0
1.0 133 22 0
1.0 97 -118 0
1.0 17 -15 0
1.0 160 -2 0
1.0 -144 -172 0
1.0 -147 21 0
1.0 -33 182 0
1.0 19 -11 0
1.0 32 -47 0
1.0 165 -148 0
1.0 -163 -147 0
1.0 149 2 0
1.0 173 -29 0
1.0 -50 189 0
1.0 -171 -98 0
1.0 -108 -180 0
1.0 26 -190 0
1.0 -138 -120 0
1.0 66 123 0
1.0 -124 71 0
1.0 99 -185 0
1.0 173 -169 0
1.0 -67 -3 0
1.0 -183 74 0
1.0 -64 181 0
1.0 -101 -169 0
1.0 -91 125 0
1.0 -195 86 0
1.0 70 126 0
1.0 -95 -71 0
1.0 -74 120 0
1.0 193 49 0
1.0 30 -63 0
1.0 31 -158 0
1.0 -82 77 0
1.0 -163 46 0
1.0 172 11 0
1.0 82 -62 0
1.0 181 -161 0
1.0 10 76 0
1.0 -139 -84 0
1.0 42 -65 0
1.0 -141 -26 0
1.0 -72 168 0
1.0 -178 10 0
1.0 71 135 0
1.0 96 -26 0
1.0 -101 51 0
1.0 135 -112 0
1.0 176 -98 0
1.0 124 -97 0
1.0 65 153 0
1.0 -162 146 0
1.0 80 -116 0
1.0 141 106 0
1.0 157 22 0
1.0 133 -88 0
1.0 186 -166 0
1.0 -63 -42 0
1.0 -195 -140 0
1.0 -85 -71 0
1.0 -187 -72 0
1.0 -178 -18 0
1.0 39 -49 0
1.0 137 -93 0
1.0 58 -103 0
1.0 145 -133 0
1.0 73 -15 0
1.0 -86 85 0
1.0 -156 -60 0
1.0 77 -169 0
1.0 18 -93 0
1.0 185 166 0
1.0 -69 106 0
1.0 -39 -7 0
1.0 22 -49 0
1.0 -133 190 0
1.0 49 -179 0
1.0 147 -89 0
1.0 -181 -128 0
1.0 94 -193 0
1.0 -98 -168 0
1.0 175 -129 0
1.0 -178 -114 0
1.0 -104 -83 0
1.0 62 20 0
1.0 -109 120 0
1.0 47 -89 0
1.0 -81 -61 0
1.0 -28 79 0
1.0 -8 -161 0
1.0 74 -102 0
1.0 -185 94 0
1.0 114 8 0
1.0 -127 -25 0
1.0 -113 -165 0
1.0 -26 17 0
1.0 96 -85 0
1.0 45 -53 0
1.0 155 -185 0
1.0 -79 -26 0
1.0 33 -38 0
1.0 -62 -126 0
1.0 -91 -46 0
1.0 -63 -138 0
1.0 23 62 0
1.0 151 -187 0
1.0 83 -170 0
1.0 -154 -5 0
1.0 19 -99 0
1.0 31 27 0
1.0 -194 -150 0
1.0 -117 -97 0
1.0 159 -21 0
1.0 8 45 0
1.0 -14 -56 0
1.0 -61 137 0
1.0 36 12 0
1.0 -39 57 0
1.0 -7 -81 0
1.0 178 -117 0
1.0 138 -78 0
1.0 123 -88 0
1.0 -143 31 0
1.0 168 63 0
1.0 75 -105 0
1.0 -162 -11 0
1.0 91 108 0
1.0 24 -153 0
1.0 -31 -48 0
1.0 135 140 0
1.0 171 -192 0
1.0 -55 -162 0
1.0 67 9 0
1.0 -19 -186 0
1.0 -93 -86 0
1.0 39 180 0
1.0 27 -182 0
1.0 121 109 0
1.0 101 -119 0
1.0 81 -170 0
1.0 -179 -126 0
1.0 -111 170 0
1.0 -56 84 0
1.0 -63 196 0
1.0 177 183 0
1.0 -92 -90 0
1.0 -9 18 0
1.0 187 -32 0
1.0 -157 12 0
1.0 182 69 0
1.0 -152 190 0
1.0 -185 -93 0
1.0 76 -155 0
1.0 -45 49 0
1.0 -66 107 0
1.0 139 179 0
1.0 -190 -180 0
1.0 48 -34 0
1.0 23 138 0
1.0 -30 -118 0
1.0 73 -28 0
1.0 -76 -31 0
1.0 -138 112 0
1.0 -91 12 0
1.0 192 135 0
1.0 169 -58 0
1.0 -196 52 0
1.0 -170 166 0
1.0 -194 2 0
1.0 33 -128 0
1.0 40 -5 0
1.0 16 19 0
1.0 154 -60 0
1.0 -118 -85 0
1.0 -137 -110 0
1.0 -76 68 0
1.0 -70 -105 0
1.0 32 148 0
1.0 -152 -120 0
1.0 -139 10 0
1.0 69 -21 0
1.0 106 127 0
1.0 -36 -38 0
1.0 -105 -94 0
1.0 198 116 0
1.0 64 149 0
1.0 -68 100 0
1.0 109 -158 0
1.0 -179 112 0
1.0 -39 64 0
1.0 -101 73 0
1.0 -166 -164 0
1.0 -80 -56 0
1.0 -5 93 0
1.0 193 -140 0
1.0 98 177 0
1.0 -89 -44 0
1.0 -107 85 0
1.0 158 -185 0
1.0 148 194 0
1.0 -49 80 0
1.0 -173 -126 0
1.0 66 -4 0
1.0 180 147 0
1.0 -190 199 0
1.0 -83 194 0
1.0 -178 -118 0
1.0 -111 -50 0
1.0 130 -120 0
1.0 46 -139 0
1.0 142 -134 0
1.0 -80 114 0
1.0 -112 -183 0
1.0 177 -70 0
1.0 188 197 0
1.0 47 -30 0
1.0 150 -71 0
1.0 -9 -145 0
1.0 79 -181 0
1.0 94 60 0
1.0 -43 194 0
1.0 -63 34 0
1.0 -31 51 0
1.0 81 6 0
1.0 76 130 0
1.0 74 -131 0
1.0 -112 104 0
1.0 164 138 0
1.0 131 -10 0
1.0 43 196 0
1.0 -47 -192 0
1.0 -198 2 0
1.0 -131 183 0
1.0 -113 190 0
1.0 94 67 0
1.0 4 -39 0
1.0 -48 86 0
1.0 -82 -171 0
1.0 162 -112 0
1.0 114 14 0
1.0 196 -188 0
1.0 -178 6 0
1.0 -72 162 0
1.0 1 190 0
1.0 -76 -136 0
1.0 106 102 0
1.0 14 -142 0
1.0 -155 -58 0
1.0 45 21 0
1.0 27 191 0
1.0 -153 -21 0
1.0 10 182 0
1.0 118 141 0
1.0 43 127 0
1.0 -68 116 0
1.0 -173 156 0
1.0 176 30 0
1.0 21 -133 0
1.0 -153 -74 0
1.0 55 -128 0
1.0 -69 -89 0
1.0 -16 85 0
1.0 -200 -152 0
1.0 -108 77 0
1.0 107 -30 0
1.0 162 -185 0
1.0 58 -27 0
1.0 154 125 0
1.0 -14 80 0
1.0 -164 -103 0
1.0 -55 -18 0
1.0 95 125 0
1.0 -154 -129 0
1.0 114 -29 0
1.0 55 108 0
1.0 32 169 0
1.0 48 166 0
1.0 -68 -187 0
1.0 5 111 0
1.0 35 -127 0
1.0 -56 -29 0
1.0 -57 -134 0
1.0 -41 23 0
1.0 -191 151 0
1.0 117 -192 0
1.0 -178 -25 0
1.0 135 -189 0
1.0 -116 -181 0
1.0 -9 61 0
1.0 -195 79 0
1.0 -101 97 0
1.0 -47 -24 0
1.0 -16 -180 0
1.0 -5 -53 0
1.0 -42 -56 0
1.0 -36 66 0
1.0 -127 -67 0
1.0 -145 87 0
1.0 -184 63 0
1.0 -87 -67 0
1.0 47 141 0
1.0 -193 70 0
1.0 -125 -99 0
1.0 165 119 0
1.0 186 -115 0
1.0 -2 -168 0
1.0 31 -114 0
1.0 181 8 0
1.0 148 -113 0
1.0 -182 -68 0
1.0 166 -167 0
1.0 85 70 0
1.0 -184 -33 0
1.0 -200 176 0
1.0 -89 184 0
1.0 191 -165 0
1.0 77 173 0
1.0 -41 55 0
1.0 -21 -29 0
1.0 -99 156 0
1.0 188 -175 0
1.0 151 37 0
1.0 -20 164 0
1.0 -128 4 0
1.0 177 29 0
1.0 83 -25 0
1.0 54 -157 0
1.0 112 184 0
1.0 159 -101 0
1.0 -137 -105 0
1.0 -68 -56 0
1.0 -59 116 0
1.0 145 61 0
1.0 -85 -73 0
1.0 29 -139 0
1.0 123 124 0
1.0 -25 -127 0
1.0 -31 136 0
1.0 191 84 0
1.0 200 -92 0
1.0 -152 134 0
1.0 -6 102 0
1.0 -41 -65 0
1.0 188 15 0
1.0 -142 -32 0
1.0 167 -90 0
1.0 174 -165 0
1.0 -56 90 0
1.0 24 89 0
1.0 190 19 0
1.0 -83 39 0
1.0 54 -35 0
1.0 -66 55 0
1.0 -144 -40 0
1.0 4 197 0
1.0 87 -9 0
1.0 -97 111 0
1.0 -130 3 0
1.0 41 108 0
1.0 142 165 0
1.0 19 -58 0
1.0 97 29 0
1.0 -26 -171 0
1.0 179 26 0
1.0 -137 160 0
1.0 163 77 0
1.0 184 -161 0
1.0 -125 -188 0
1.0 -45 -171 0
1.0 200 185 0
1.0 -156 -1 0
1.0 27 -157 0
1.0 117 170 0
1.0 46 107 0
1.0 -68 -180 0
1.0 -167 86 0
1.0 -57 39 0
1.0 24 -194 0
1.0 -195 18 0
1.0 -174 121 0
1.0 -91 -13 0
1.0 -120 -51 0
1.0 -30 -120 0
1.0 6 113 0
1.0 -152 -160 0
1.0 -153 -200 0
1.0 -17 -66 0
1.0 187 151 0
1.0 164 50 0
1.0 101 -179 0
1.0 -99 -48 0
1.0 -160 -133 0
1.0 92 85 0
1.0 -85 -39 0
1.0 104 159 0
1.0 -110 173 0
1.0 -23 -181 0
1.0 160 25 0
1.0 -73 179 0
1.0 -111 127 0
1.0 12 29 0
1.0 -67 -38 0
1.0 196 -89 0
1.0 -61 29 0
1.0 9 -133 0
1.0 158 58 0
1.0 36 -186 0
1.0 -113 -5 0
1.0 33 195 0
1.0 33 16 0
1.0 -104 -131 0
1.0 159 -111 0
1.0 -44 53 0
1.0 110 -161 0
1.0 147 93 0
1.0 -97 -40 0
1.0 34 2 0
1.0 17 -99 0
1.0 29 -27 0
1.0 -137 -132 0
1.0 -184 91 0
1.0 52 -13 0
1.0 105 130 0
1.0 -169 40 0
1.0 41 159 0
1.0 -57 162 0
1.0 189 -63 0
1.0 -194 -29 0
1.0 120 -88 0
1.0 -100 109 0
1.0 39 25 0
1.0 64 -136 0
1.0 -94 -77 0
1.0 39 140 0
1.0 -2 -109 0
1.0 -137 59 0
1.0 146 44 0
1.0 153 -195 0
1.0 -19 53 0
1.0 -188 6 0
1.0 83 -149 0
1.0 -88 68 0
1.0 177 -102 0
1.0 -160 -58 0
1.0 -102 196 0
1.0 190 198 0
1.0 51 42 0
1.0 -48 -77 0
1.0 25 -152 0
1.0 20 -1 0
1.0 -102 88 0
1.0 -146 78 0
1.0 -73 116 0
1.0 113 -145 0
1.0 187 160 0
1.0 -37 122 0
1.0 -73 17 0
1.0 17 -177 0
1.0 -64 196 0
1.0 73 -147 0
1.0 62 -156 0
1.0 -101 77 0
1.0 -37 140 0
1.0 -61 -86 0
1.0 102 -109 0
1.0 85 -113 0
1.0 -109 -18 0
1.0 -165 12 0
1.0 167 133 0
1.0 -10 139 0
1.0 -79 -76 0
1.0 161 53 0
1.0 -161 97 0
1.0 -10 -19 0
1.0 37 149 0
1.0 160 -25 0
1.0 -158 -28 0
1.0 166 148 0
1.0 -23 -132 0
1.0 184 -54 0
1.0 -151 -26 0
1.0 45 183 0
1.0 132 177 0
1.0 2 -107 0
1.0 -134 11 0
1.0 -158 -138 0
1.0 -69 126 0
1.0 -180 -8 0
1.0 34 188 0
1.0 -171 -170 0
1.0 -147 -39 0
1.0 -145 11 0
1.0 -21 -31 0
1.0 -169 121 0
1.0 47 122 0
1.0 -130 -87 0
1.0 75 48 0
1.0 -17 -200 0
1.0 -38 -139 0
1.0 149 -17 0
1.0 -48 38 0
1.0 159 108 0
1.0 29 -142 0
1.0 -29 -187 0
1.0 -34 164 0
1.0 163 -94 0
1.0 -32 -125 0
1.0 -141 -42 0
1.0 80 98 0
1.0 5 56 0
1.0 -198 73 0
1.0 -59 115 0
1.0 -78 77 0
1.0 170 158 0
1.0 -82 22 0
1.0 64 -132 0
1.0 -30 13 0
1.0 69 23 0
1.0 96 -61 0
1.0 175 23 0
1.0 100 191 0
1.0 149 132 0
1.0 154 53 0
1.0 -185 61 0
1.0 74 -140 0
1.0 163 117 0
1.0 177 -102 0
1.0 124 60 0
1.0 51 -97 0
1.0 28 -164 0
1.0 -16 80 0
1.0 141 158 0
1.0 -97 63 0
1.0 -179 -165 0
1.0 -67 -130 0
1.0 190 110 0
1.0 6 106 0
1.0 69 66 0
1.0 145 13 0
1.0 170 99 0
1.0 -162 -55 0
1.0 20 44 0
1.0 174 -200 0
1.0 110 -89 0
1.0 -194 40 0
1.0 -105 165 0
1.0 -178 -32 0
1.0 131 32 0
1.0 86 -140 0
1.0 -184 -125 0
1.0 -125 66 0
1.0 -154 -122 0
1.0 161 100 0
1.0 -65 156 0
1.0 -188 -47 0
1.0 78 -3 0
1.0 142 -41 0
1.0 166 58 0
1.0 -123 3 0
1.0 125 75 0
1.0 -175 33 0
1.0 188 -64 0
1.0 110 -70 0
1.0 -72 104 0
1.0 -144 -17 0
1.0 -75 -22 0
1.0 25 -123 0
1.0 198 -95 0
1.0 127 -184 0
1.0 47 -92 0
1.0 -162 184 0
1.0 87 93 0
1.0 -109 -185 0
1.0 -7 138 0
1.0 -60 52 0
1.0 147 12 0
1.0 -195 41 0
1.0 -133 79 0
1.0 -63 -140 0
1.0 -32 -172 0
1.0 -156 -119 0
1.0 -56 -103 0
1.0 -155 -171 0
1.0 -183 -2 0
1.0 43 -163 0
1.0 42 -16 0
1.0 155 -194 0
1.0 -165 -33 0
1.0 152 50 0
1.0 -153 -76 0
1.0 46 94 0
1.0 96 -184 0
1.0 -146 -25 0
1.0 40 -180 0
1.0 -174 -145 0
1.0 178 -107 0
1.0 -157 -142 0
1.0 17 57 0
1.0 151 25 0
1.0 -8 -97 0
1.0 -122 -97 0
1.0 -77 33 0
1.0 -178 -136 0
1.0 43 -47 0
1.0 -189 19 0
1.0 76 124 0
1.0 149 -159 0
1.0 -56 -57 0
1.0 -153 51 0
1.0 83 93 0
1.0 28 67 0
1.0 114 -98 0
1.0 -117 -177 0
1.0 100 174 0
1.0 132 -89 0
1.0 -145 114 0
1.0 -165 101 0
1.0 -193 6 0
1.0 73 -122 0
1.0 20 -160 0
1.0 -136 194 0
1.0 168 144 0
1.0 33 -88 0
1.0 2 -49 0
1.0 150 -2 0
1.0 -8 120 0
1.0 42 54 0
1.0 -13 -154 0
1.0 -147 -123 0
1.0 67 -13 0
1.0 -99 -77 0
1.0 152 -121 0
1.0 -133 39 0
1.0 2 41 0
1.0 107 154 0
1.0 150 16 0
1.0 -199 121 0
1.0 134 37 0
1.0 -113 175 0
1.0 95 76 0
1.0 115 -178 0
1.0 -19 -173 0
1.0 -127 38 0
1.0 -53 192 0
1.0 -113 87 0
1.0 124 137 0
1.0 -111 56 0
1.0 132 118 0
1.0 -96 -113 0
1.0 86 131 0
1.0 168 25 0
1.0 16 -37 0
1.0 -123 191 0
1.0 127 51 0
1.0 106 183 0
1.0 101 -76 0
1.0 -188 43 0
1.0 173 -148 0
1.0 -172 -173 0
1.0 -9 -35 0
1.0 -25 -90 0
1.0 -140 61 0
1.0 44 -32 0
1.0 -107 164 0
1.0 -7 -48 0
1.0 -196 -51 0
1.0 -23 82 0
1.0 -116 -71 0
1.0 160 140 0
1.0 -200 79 0
1.0 -110 26 0
1.0 -190 -125 0
1.0 -172 -77 0
1.0 -127 -95 0
1.0 -176 89 0
1.0 159 -142 0
1.0 82 120 0
1.0 -199 -161 0
1.0 -186 -111 0
1.0 -36 35 0
1.0 -111 145 0
1.0 -39 108 0
1.0 -197 -166 0
1.0 108 -134 0
1.0 54 89 0
1.0 -49 196 0
1.0 106 -85 0
1.0 -119 179 0
1.0 124 -122 0
1.0 -30 52 0
1.0 -17 -79 0
1.0 -13 53 0
1.0 -142 -185 0
1.0 180 78 0
1.0 163 34 0
1.0 -13 -174 0
1.0 95 -175 0
1.0 -26 72 0
1.0 -151 -132 0
1.0 184 -81 0
1.0 -65 147 0
1.0 -24 -142 0
1.0 176 -154 0
1.0 -128 176 0
1.0 -151 -22 0
1.0 94 97 0
1.0 28 186 0
1.0 -66 -35 0
1.0 -181 55 0
1.0 -196 -102 0
1.0 -56 -58 0
1.0 33 -84 0
1.0 -105 -152 0
1.0 49 178 0
1.0 163 49 0
1.0 -84 26 0
1.0 80 131 0
1.0 33 60 0
1.0 118 -6 0
1.0 -90 -77 0
1.0 -28 93 0
1.0 -71 35 0
1.0 84 -40 0
1.0 65 -19 0
1.0 150 -100 0
1.0 160 66 0
1.0 72 -143 0
1.0 -20 161 0
1.0 -53 -148 0
1.0 -183 74 0
1.0 114 -17 0
1.0 -36 -63 0
1.0 -163 -142 0
1.0 -8 38 0
1.0 181 -27 0
1.0 187 195 0
1.0 -142 -169 0
1.0 -43 -120 0
1.0 -137 -21 0
1.0 -84 57 0
1.0 -199 124 0
1.0 161 -168 0
1.0 -195 -125 0
1.0 119 188 0
1.0 -157 -185 0
1.0 -104 174 0
1.0 195 90 0
1.0 -146 -167 0
1.0 -90 93 0
1.0 -60 36 0
1.0 161 134 0
1.0 -121 57 0
1.0 41 -125 0
1.0 -99 31 0
1.0 -120 195 0
1.0 162 94 0
1.0 -186 162 0
1.0 198 -95 0
1.0 29 -136 0
1.0 193 178 0
1.0 -103 102 0
1.0 133 161 0
1.0 -156 -63 0
1.0 -157 -130 0
1.0 -91 71 0
1.0 165 -88 0
1.0 -23 84 0
1.0 61 -169 0
1.0 -71 26 0
1.0 186 -57 0
1.0 119 175 0
1.0 104 -26 0
1.0 96 5 0
1.0 93 -128 0
1.0 -11 196 0
1.0 165 179 0
1.0 4 -198 0
1.0 -54 -94 0
1.0 68 -188 0
1.0 -13 -66 0
1.0 -70 -47 0
1.0 175 -23 0
1.0 19 -9 0
1.0 187 -90 0
1.0 -87 -55 0
1.0 -148 109 0
1.0 -97 -161 0
1.0 26 152 0
1.0 199 -187 0
1.0 -9 137 0
1.0 145 -13 0
1.0 -102 -26 0
1.0 -80 100 0
1.0 9 -43 0
1.0 4 30 0
1.0 -181 -32 0
1.0 -19 184 0
1.0 120 109 0
1.0 -121 63 0
1.0 88 -116 0
1.0 -15 140 0
1.0 -183 -39 0
1.0 68 143 0
1.0 175 -141 0
1.0 125 180 0
1.0 -88 73 0
1.0 135 103 0
1.0 -18 40 0
1.0 180 -186 0
1.0 -25 185 0
1.0 -128 -163 0
1.0 104 168 0
1.0 147 114 0
1.0 187 -179 0
1.0 -81 71 0
1.0 -111 135 0
1.0 121 -188 0
1.0 173 1 0
1.0 163 176 0
1.0 144 96 0
1.0 -10 -164 0
1.0 -143 166 0
1.0 -36 -61 0
1.0 195 -54 0
1.0 41 90 0
1.0 -91 96 0
1.0 -72 114 0
1.0 -9 12 0
1.0 176 -29 0
1.0 -194 130 0
1.0 -190 -62 0
1.0 116 -14 0
1.0 -104 -160 0
1.0 55 -81 0
1.0 -194 165 0
1.0 177 -46 0
1.0 75 33 0
1.0 162 -10 0
1.0 -72 -73 0
1.0 -86 -35 0
1.0 -195 111 0
1.0 -191 -28 0
1.0 -193 -117 0
1.0 -162 6 0
1.0 -38 -191 0
1.0 200 151 0
1.0 -87 -57 0
1.0 -199 -147 0
1.0 129 -165 0
1.0 -140 84 0
1.0 69 119 0
1.0 -40 54 0
1.0 158 -113 0
1.0 64 -100 0
1.0 157 -188 0
1.0 134 187 0
1.0 151 164 0
1.0 -47 -169 0
1.0 -87 -164 0
1.0 -18 -103 0
1.0 -15 187 0
1.0 86 161 0
1.0 -149 98 0
1.0 -85 62 0
1.0 -26 164 0
1.0 -132 72 0
1.0 -35 177 0
1.0 79 103 0
1.0 -89 -158 0
1.0 119 198 0
1.0 -95 -15 0
1.0 77 -94 0
1.0 -58 -140 0
1.0 11 161 0
1.0 138 154 0
1.0 -56 -124 0
1.0 -82 80 0
1.0 77 -135 0
1.0 -150 17 0
1.0 -111 -166 0
1.0 -105 -101 0
1.0 -62 -166 0
1.0 119 -57 0
1.0 -181 124 0
1.0 4 37 0
1.0 171 -131 0
1.0 -148 4 0
1.0 169 73 0
1.0 -174 184 0
1.0 150 148 0
1.0 5 -48 0
1.0 172 -161 0
1.0 198 -110 0
1.0 40 -108 0
1.0 111 34 0
1.0 -107 72 0
1.0 -56 139 0
1.0 87 147 0
1.0 195 -116 0
1.0 -77 123 0
1.0 33 196 0
1.0 103 130 0
1.0 164 104 0
1.0 -175 44 0
1.0 183 64 0
1.0 -11 107 0
1.0 -22 35 0
1.0 -157 -111 0
1.0 106 13 0
1.0 143 -120 0
1.0 -23 -113 0
1.0 157 -124 0
1.0 187 -62 0
1.0 168 -166 0
1.0 200 -172 0
1.0 -83 -58 0
1.0 -71 7 0
1.0 -126 -17 0
